(set-option :print-success false)
(set-info :smt-lib-version 2.0)
(set-option :produce-models true)
(set-option :AUTO_CONFIG false)
(set-option :pp.bv_literals false)
(set-option :MODEL.V2 true)
(set-option :smt.PHASE_SELECTION 0)
(set-option :smt.RESTART_STRATEGY 0)
(set-option :smt.RESTART_FACTOR |1.5|)
(set-option :smt.ARITH.RANDOM_INITIAL_VALUE true)
(set-option :smt.CASE_SPLIT 3)
(set-option :smt.DELAY_UNITS true)
(set-option :NNF.SK_HACK true)
(set-option :smt.MBQI false)
(set-option :smt.QI.EAGER_THRESHOLD 100)
(set-option :TYPE_CHECK true)
(set-option :smt.BV.REFLECT true)
(set-option :TIMEOUT 20000000)
; done setting options


(set-info :category "industrial")
(declare-sort |T@U| 0)
(declare-sort |T@T| 0)
(declare-fun real_pow (Real Real) Real)
(declare-fun UOrdering2 (|T@U| |T@U|) Bool)
(declare-fun UOrdering3 (|T@T| |T@U| |T@U|) Bool)
(declare-fun tickleBool (Bool) Bool)
(assert (and (tickleBool true) (tickleBool false)))
(declare-fun Ctor (T@T) Int)
(declare-fun intType () T@T)
(declare-fun realType () T@T)
(declare-fun boolType () T@T)
(declare-fun int_2_U (Int) T@U)
(declare-fun U_2_int (T@U) Int)
(declare-fun type (T@U) T@T)
(declare-fun real_2_U (Real) T@U)
(declare-fun U_2_real (T@U) Real)
(declare-fun bool_2_U (Bool) T@U)
(declare-fun U_2_bool (T@U) Bool)
(declare-fun javaTypeType () T@T)
(declare-fun fixed.java.lang.Object () T@U)
(declare-fun fixed.java.lang.String () T@U)
(declare-fun oneStep (T@U T@U) T@U)
(declare-fun fixed.java.io.Serializable () T@U)
(declare-fun fixed.java.lang.Throwable () T@U)
(declare-fun fixed.java.lang.Exception () T@U)
(declare-fun fixed.java.lang.RuntimeException () T@U)
(declare-fun fixed.java.lang.IndexOutOfBoundsException () T@U)
(declare-fun fixed.java.lang.ArrayIndexOutOfBoundsException () T@U)
(declare-fun fixed.java.lang.NullPointerException () T@U)
(declare-fun fixed.java.lang.Boolean () T@U)
(declare-fun fixed.sg.edu.nus.comp.tsunami.safe.Safe () T@U)
(declare-fun fixed.UsernamePasswordLoginModule () T@U)
(declare-fun fixed.java.lang.Comparable () T@U)
(declare-fun fixed.java.lang.CharSequence () T@U)
(declare-fun fixed.java.lang.ClassCastException () T@U)
(declare-fun FieldType (T@T) T@T)
(declare-fun FieldTypeInv0 (T@T) T@T)
(declare-fun fixed.$type () T@U)
(declare-fun fixed.$alloc () T@U)
(declare-fun refType () T@T)
(declare-fun fixed.$null () T@U)
(declare-fun fixed.$intToBool (Int) Bool)
(declare-fun fixed.$refToBool (T@U) Bool)
(declare-fun fixed.$boolToInt (Bool) Int)
(declare-fun fixed.$cmpReal (Real Real) Int)
(declare-fun fixed.$cmpInt (Int Int) Int)
(declare-fun fixed.$intToRef (Int) T@U)
(declare-fun MapType0Type (T@T) T@T)
(declare-fun MapType0TypeInv0 (T@T) T@T)
(declare-fun MapType0Select (T@U T@U T@U) T@U)
(declare-fun MapType0Store (T@U T@U T@U T@U) T@U)
(declare-fun fixed.$heap () T@U)
(declare-fun MapType1Type (T@T T@T) T@T)
(declare-fun MapType1TypeInv0 (T@T) T@T)
(declare-fun MapType1TypeInv1 (T@T) T@T)
(declare-fun MapType1Select (T@U T@U) T@U)
(declare-fun MapType1Store (T@U T@U T@U) T@U)
(declare-fun fixed.$arrSizeHeap () T@U)
(declare-fun fixed.$stringSizeHeap () T@U)
(declare-fun $this () T@U)
(declare-fun %lbl%+472139 () Bool)
(declare-fun AA_TEMP130@1 () Bool)
(declare-fun AA_TEMP130@0 () Bool)
(declare-fun %lbl%@479512 () Bool)
(declare-fun %lbl%+472138 () Bool)
(declare-fun %lbl%+472137 () Bool)
(declare-fun %lbl%+472136 () Bool)
(declare-fun %lbl%+472135 () Bool)
(declare-fun %lbl%+472134 () Bool)
(declare-fun %lbl%+472133 () Bool)
(declare-fun %lbl%+472132 () Bool)
(declare-fun %lbl%+472131 () Bool)
(declare-fun %lbl%+472130 () Bool)
(declare-fun %lbl%+472129 () Bool)
(declare-fun %lbl%+472128 () Bool)
(declare-fun %lbl%+472127 () Bool)
(declare-fun %lbl%+472126 () Bool)
(declare-fun %lbl%+472125 () Bool)
(declare-fun %lbl%+472124 () Bool)
(declare-fun %lbl%+472123 () Bool)
(declare-fun %lbl%+472122 () Bool)
(declare-fun %lbl%+472121 () Bool)
(declare-fun %lbl%+479253 () Bool)
(declare-fun %lbl%+479257 () Bool)
(assert  (and (and (and (and (and (and (and (and (and (and (and (= (Ctor intType) 0) (= (Ctor realType) 1)) (= (Ctor boolType) 2)) (forall ((arg0 Int) ) (! (= (U_2_int (int_2_U arg0)) arg0)
 :qid |typeInv:U_2_int|
 :pattern ( (int_2_U arg0))
))) (forall ((x T@U) ) (!  (=> (= (type x) intType) (= (int_2_U (U_2_int x)) x))
 :qid |cast:U_2_int|
 :pattern ( (U_2_int x))
))) (forall ((arg0@@0 Int) ) (! (= (type (int_2_U arg0@@0)) intType)
 :qid |funType:int_2_U|
 :pattern ( (int_2_U arg0@@0))
))) (forall ((arg0@@1 Real) ) (! (= (U_2_real (real_2_U arg0@@1)) arg0@@1)
 :qid |typeInv:U_2_real|
 :pattern ( (real_2_U arg0@@1))
))) (forall ((x@@0 T@U) ) (!  (=> (= (type x@@0) realType) (= (real_2_U (U_2_real x@@0)) x@@0))
 :qid |cast:U_2_real|
 :pattern ( (U_2_real x@@0))
))) (forall ((arg0@@2 Real) ) (! (= (type (real_2_U arg0@@2)) realType)
 :qid |funType:real_2_U|
 :pattern ( (real_2_U arg0@@2))
))) (forall ((arg0@@3 Bool) ) (! (= (U_2_bool (bool_2_U arg0@@3)) arg0@@3)
 :qid |typeInv:U_2_bool|
 :pattern ( (bool_2_U arg0@@3))
))) (forall ((x@@1 T@U) ) (!  (=> (= (type x@@1) boolType) (= (bool_2_U (U_2_bool x@@1)) x@@1))
 :qid |cast:U_2_bool|
 :pattern ( (U_2_bool x@@1))
))) (forall ((arg0@@4 Bool) ) (! (= (type (bool_2_U arg0@@4)) boolType)
 :qid |funType:bool_2_U|
 :pattern ( (bool_2_U arg0@@4))
))))
(assert (forall ((x@@2 T@U) ) (! (UOrdering2 x@@2 x@@2)
 :qid |bg:subtype-refl|
 :no-pattern (U_2_int x@@2)
 :no-pattern (U_2_bool x@@2)
)))
(assert (forall ((x@@3 T@U) (y T@U) (z T@U) ) (! (let ((alpha (type x@@3)))
 (=> (and (and (= (type y) alpha) (= (type z) alpha)) (and (UOrdering2 x@@3 y) (UOrdering2 y z))) (UOrdering2 x@@3 z)))
 :qid |bg:subtype-trans|
 :pattern ( (UOrdering2 x@@3 y) (UOrdering2 y z))
)))
(assert (forall ((x@@4 T@U) (y@@0 T@U) ) (! (let ((alpha@@0 (type x@@4)))
 (=> (= (type y@@0) alpha@@0) (=> (and (UOrdering2 x@@4 y@@0) (UOrdering2 y@@0 x@@4)) (= x@@4 y@@0))))
 :qid |bg:subtype-antisymm|
 :pattern ( (UOrdering2 x@@4 y@@0) (UOrdering2 y@@0 x@@4))
)))
(assert  (and (= (Ctor javaTypeType) 3) (= (type fixed.java.lang.Object) javaTypeType)))
(assert (forall ((w T@U) ) (!  (=> (and (= (type w) javaTypeType) (UOrdering2 fixed.java.lang.Object w)) (= fixed.java.lang.Object w))
 :pattern ( (UOrdering2 fixed.java.lang.Object w))
)))
(assert (= (type fixed.java.lang.String) javaTypeType))
(assert (not (= fixed.java.lang.String fixed.java.lang.Object)))
(assert (UOrdering2 fixed.java.lang.String fixed.java.lang.Object))
(assert (forall ((w@@0 T@U) ) (!  (=> (= (type w@@0) javaTypeType) (=> (and (UOrdering2 fixed.java.lang.String w@@0) (UOrdering2 w@@0 fixed.java.lang.Object)) (or (= fixed.java.lang.String w@@0) (= fixed.java.lang.Object w@@0))))
 :pattern ( (UOrdering2 fixed.java.lang.String w@@0) (UOrdering2 w@@0 fixed.java.lang.Object))
)))
(assert (forall ((w@@1 T@U) ) (!  (=> (and (= (type w@@1) javaTypeType) (UOrdering2 fixed.java.lang.String w@@1)) (or (= fixed.java.lang.String w@@1) (UOrdering2 fixed.java.lang.Object w@@1)))
 :pattern ( (UOrdering2 fixed.java.lang.String w@@1))
)))
(assert (forall ((arg0@@5 T@U) (arg1 T@U) ) (! (= (type (oneStep arg0@@5 arg1)) javaTypeType)
 :qid |funType:oneStep|
 :pattern ( (oneStep arg0@@5 arg1))
)))
(assert (forall ((w@@2 T@U) ) (!  (=> (and (= (type w@@2) javaTypeType) (UOrdering2 w@@2 fixed.java.lang.String)) (= (oneStep fixed.java.lang.Object w@@2) fixed.java.lang.String))
 :pattern ( (UOrdering2 w@@2 fixed.java.lang.String))
)))
(assert (= (type fixed.java.io.Serializable) javaTypeType))
(assert (forall ((w@@3 T@U) ) (!  (=> (and (= (type w@@3) javaTypeType) (UOrdering2 fixed.java.io.Serializable w@@3)) (= fixed.java.io.Serializable w@@3))
 :pattern ( (UOrdering2 fixed.java.io.Serializable w@@3))
)))
(assert (= (type fixed.java.lang.Throwable) javaTypeType))
(assert (not (= fixed.java.lang.Throwable fixed.java.lang.Object)))
(assert (UOrdering2 fixed.java.lang.Throwable fixed.java.lang.Object))
(assert (not (= fixed.java.lang.Throwable fixed.java.io.Serializable)))
(assert (UOrdering2 fixed.java.lang.Throwable fixed.java.io.Serializable))
(assert (forall ((w@@4 T@U) ) (!  (=> (= (type w@@4) javaTypeType) (=> (and (UOrdering2 fixed.java.lang.Throwable w@@4) (UOrdering2 w@@4 fixed.java.lang.Object)) (or (= fixed.java.lang.Throwable w@@4) (= fixed.java.lang.Object w@@4))))
 :pattern ( (UOrdering2 fixed.java.lang.Throwable w@@4) (UOrdering2 w@@4 fixed.java.lang.Object))
)))
(assert (forall ((w@@5 T@U) ) (!  (=> (= (type w@@5) javaTypeType) (=> (and (UOrdering2 fixed.java.lang.Throwable w@@5) (UOrdering2 w@@5 fixed.java.io.Serializable)) (or (= fixed.java.lang.Throwable w@@5) (= fixed.java.io.Serializable w@@5))))
 :pattern ( (UOrdering2 fixed.java.lang.Throwable w@@5) (UOrdering2 w@@5 fixed.java.io.Serializable))
)))
(assert (forall ((w@@6 T@U) ) (!  (=> (and (= (type w@@6) javaTypeType) (UOrdering2 fixed.java.lang.Throwable w@@6)) (or (or (= fixed.java.lang.Throwable w@@6) (UOrdering2 fixed.java.lang.Object w@@6)) (UOrdering2 fixed.java.io.Serializable w@@6)))
 :pattern ( (UOrdering2 fixed.java.lang.Throwable w@@6))
)))
(assert (forall ((w@@7 T@U) ) (!  (=> (and (= (type w@@7) javaTypeType) (UOrdering2 w@@7 fixed.java.lang.Throwable)) (= (oneStep fixed.java.lang.Object w@@7) fixed.java.lang.Throwable))
 :pattern ( (UOrdering2 w@@7 fixed.java.lang.Throwable))
)))
(assert (= (type fixed.java.lang.Exception) javaTypeType))
(assert (not (= fixed.java.lang.Exception fixed.java.lang.Throwable)))
(assert (UOrdering2 fixed.java.lang.Exception fixed.java.lang.Throwable))
(assert (forall ((w@@8 T@U) ) (!  (=> (= (type w@@8) javaTypeType) (=> (and (UOrdering2 fixed.java.lang.Exception w@@8) (UOrdering2 w@@8 fixed.java.lang.Throwable)) (or (= fixed.java.lang.Exception w@@8) (= fixed.java.lang.Throwable w@@8))))
 :pattern ( (UOrdering2 fixed.java.lang.Exception w@@8) (UOrdering2 w@@8 fixed.java.lang.Throwable))
)))
(assert (forall ((w@@9 T@U) ) (!  (=> (and (= (type w@@9) javaTypeType) (UOrdering2 fixed.java.lang.Exception w@@9)) (or (= fixed.java.lang.Exception w@@9) (UOrdering2 fixed.java.lang.Throwable w@@9)))
 :pattern ( (UOrdering2 fixed.java.lang.Exception w@@9))
)))
(assert (forall ((w@@10 T@U) ) (!  (=> (and (= (type w@@10) javaTypeType) (UOrdering2 w@@10 fixed.java.lang.Exception)) (= (oneStep fixed.java.lang.Throwable w@@10) fixed.java.lang.Exception))
 :pattern ( (UOrdering2 w@@10 fixed.java.lang.Exception))
)))
(assert (= (type fixed.java.lang.RuntimeException) javaTypeType))
(assert (not (= fixed.java.lang.RuntimeException fixed.java.lang.Exception)))
(assert (UOrdering2 fixed.java.lang.RuntimeException fixed.java.lang.Exception))
(assert (forall ((w@@11 T@U) ) (!  (=> (= (type w@@11) javaTypeType) (=> (and (UOrdering2 fixed.java.lang.RuntimeException w@@11) (UOrdering2 w@@11 fixed.java.lang.Exception)) (or (= fixed.java.lang.RuntimeException w@@11) (= fixed.java.lang.Exception w@@11))))
 :pattern ( (UOrdering2 fixed.java.lang.RuntimeException w@@11) (UOrdering2 w@@11 fixed.java.lang.Exception))
)))
(assert (forall ((w@@12 T@U) ) (!  (=> (and (= (type w@@12) javaTypeType) (UOrdering2 fixed.java.lang.RuntimeException w@@12)) (or (= fixed.java.lang.RuntimeException w@@12) (UOrdering2 fixed.java.lang.Exception w@@12)))
 :pattern ( (UOrdering2 fixed.java.lang.RuntimeException w@@12))
)))
(assert (forall ((w@@13 T@U) ) (!  (=> (and (= (type w@@13) javaTypeType) (UOrdering2 w@@13 fixed.java.lang.RuntimeException)) (= (oneStep fixed.java.lang.Exception w@@13) fixed.java.lang.RuntimeException))
 :pattern ( (UOrdering2 w@@13 fixed.java.lang.RuntimeException))
)))
(assert (= (type fixed.java.lang.IndexOutOfBoundsException) javaTypeType))
(assert (not (= fixed.java.lang.IndexOutOfBoundsException fixed.java.lang.RuntimeException)))
(assert (UOrdering2 fixed.java.lang.IndexOutOfBoundsException fixed.java.lang.RuntimeException))
(assert (forall ((w@@14 T@U) ) (!  (=> (= (type w@@14) javaTypeType) (=> (and (UOrdering2 fixed.java.lang.IndexOutOfBoundsException w@@14) (UOrdering2 w@@14 fixed.java.lang.RuntimeException)) (or (= fixed.java.lang.IndexOutOfBoundsException w@@14) (= fixed.java.lang.RuntimeException w@@14))))
 :pattern ( (UOrdering2 fixed.java.lang.IndexOutOfBoundsException w@@14) (UOrdering2 w@@14 fixed.java.lang.RuntimeException))
)))
(assert (forall ((w@@15 T@U) ) (!  (=> (and (= (type w@@15) javaTypeType) (UOrdering2 fixed.java.lang.IndexOutOfBoundsException w@@15)) (or (= fixed.java.lang.IndexOutOfBoundsException w@@15) (UOrdering2 fixed.java.lang.RuntimeException w@@15)))
 :pattern ( (UOrdering2 fixed.java.lang.IndexOutOfBoundsException w@@15))
)))
(assert (forall ((w@@16 T@U) ) (!  (=> (and (= (type w@@16) javaTypeType) (UOrdering2 w@@16 fixed.java.lang.IndexOutOfBoundsException)) (= (oneStep fixed.java.lang.RuntimeException w@@16) fixed.java.lang.IndexOutOfBoundsException))
 :pattern ( (UOrdering2 w@@16 fixed.java.lang.IndexOutOfBoundsException))
)))
(assert (= (type fixed.java.lang.ArrayIndexOutOfBoundsException) javaTypeType))
(assert (not (= fixed.java.lang.ArrayIndexOutOfBoundsException fixed.java.lang.IndexOutOfBoundsException)))
(assert (UOrdering2 fixed.java.lang.ArrayIndexOutOfBoundsException fixed.java.lang.IndexOutOfBoundsException))
(assert (forall ((w@@17 T@U) ) (!  (=> (= (type w@@17) javaTypeType) (=> (and (UOrdering2 fixed.java.lang.ArrayIndexOutOfBoundsException w@@17) (UOrdering2 w@@17 fixed.java.lang.IndexOutOfBoundsException)) (or (= fixed.java.lang.ArrayIndexOutOfBoundsException w@@17) (= fixed.java.lang.IndexOutOfBoundsException w@@17))))
 :pattern ( (UOrdering2 fixed.java.lang.ArrayIndexOutOfBoundsException w@@17) (UOrdering2 w@@17 fixed.java.lang.IndexOutOfBoundsException))
)))
(assert (forall ((w@@18 T@U) ) (!  (=> (and (= (type w@@18) javaTypeType) (UOrdering2 fixed.java.lang.ArrayIndexOutOfBoundsException w@@18)) (or (= fixed.java.lang.ArrayIndexOutOfBoundsException w@@18) (UOrdering2 fixed.java.lang.IndexOutOfBoundsException w@@18)))
 :pattern ( (UOrdering2 fixed.java.lang.ArrayIndexOutOfBoundsException w@@18))
)))
(assert (forall ((w@@19 T@U) ) (!  (=> (and (= (type w@@19) javaTypeType) (UOrdering2 w@@19 fixed.java.lang.ArrayIndexOutOfBoundsException)) (= (oneStep fixed.java.lang.IndexOutOfBoundsException w@@19) fixed.java.lang.ArrayIndexOutOfBoundsException))
 :pattern ( (UOrdering2 w@@19 fixed.java.lang.ArrayIndexOutOfBoundsException))
)))
(assert (= (type fixed.java.lang.NullPointerException) javaTypeType))
(assert (not (= fixed.java.lang.NullPointerException fixed.java.lang.RuntimeException)))
(assert (UOrdering2 fixed.java.lang.NullPointerException fixed.java.lang.RuntimeException))
(assert (forall ((w@@20 T@U) ) (!  (=> (= (type w@@20) javaTypeType) (=> (and (UOrdering2 fixed.java.lang.NullPointerException w@@20) (UOrdering2 w@@20 fixed.java.lang.RuntimeException)) (or (= fixed.java.lang.NullPointerException w@@20) (= fixed.java.lang.RuntimeException w@@20))))
 :pattern ( (UOrdering2 fixed.java.lang.NullPointerException w@@20) (UOrdering2 w@@20 fixed.java.lang.RuntimeException))
)))
(assert (forall ((w@@21 T@U) ) (!  (=> (and (= (type w@@21) javaTypeType) (UOrdering2 fixed.java.lang.NullPointerException w@@21)) (or (= fixed.java.lang.NullPointerException w@@21) (UOrdering2 fixed.java.lang.RuntimeException w@@21)))
 :pattern ( (UOrdering2 fixed.java.lang.NullPointerException w@@21))
)))
(assert (forall ((w@@22 T@U) ) (!  (=> (and (= (type w@@22) javaTypeType) (UOrdering2 w@@22 fixed.java.lang.NullPointerException)) (= (oneStep fixed.java.lang.RuntimeException w@@22) fixed.java.lang.NullPointerException))
 :pattern ( (UOrdering2 w@@22 fixed.java.lang.NullPointerException))
)))
(assert (= (type fixed.java.lang.Boolean) javaTypeType))
(assert (not (= fixed.java.lang.Boolean fixed.java.lang.Object)))
(assert (UOrdering2 fixed.java.lang.Boolean fixed.java.lang.Object))
(assert (forall ((w@@23 T@U) ) (!  (=> (= (type w@@23) javaTypeType) (=> (and (UOrdering2 fixed.java.lang.Boolean w@@23) (UOrdering2 w@@23 fixed.java.lang.Object)) (or (= fixed.java.lang.Boolean w@@23) (= fixed.java.lang.Object w@@23))))
 :pattern ( (UOrdering2 fixed.java.lang.Boolean w@@23) (UOrdering2 w@@23 fixed.java.lang.Object))
)))
(assert (forall ((w@@24 T@U) ) (!  (=> (and (= (type w@@24) javaTypeType) (UOrdering2 fixed.java.lang.Boolean w@@24)) (or (= fixed.java.lang.Boolean w@@24) (UOrdering2 fixed.java.lang.Object w@@24)))
 :pattern ( (UOrdering2 fixed.java.lang.Boolean w@@24))
)))
(assert (forall ((w@@25 T@U) ) (!  (=> (and (= (type w@@25) javaTypeType) (UOrdering2 w@@25 fixed.java.lang.Boolean)) (= (oneStep fixed.java.lang.Object w@@25) fixed.java.lang.Boolean))
 :pattern ( (UOrdering2 w@@25 fixed.java.lang.Boolean))
)))
(assert (= (type fixed.sg.edu.nus.comp.tsunami.safe.Safe) javaTypeType))
(assert (not (= fixed.sg.edu.nus.comp.tsunami.safe.Safe fixed.java.lang.Object)))
(assert (UOrdering2 fixed.sg.edu.nus.comp.tsunami.safe.Safe fixed.java.lang.Object))
(assert (forall ((w@@26 T@U) ) (!  (=> (= (type w@@26) javaTypeType) (=> (and (UOrdering2 fixed.sg.edu.nus.comp.tsunami.safe.Safe w@@26) (UOrdering2 w@@26 fixed.java.lang.Object)) (or (= fixed.sg.edu.nus.comp.tsunami.safe.Safe w@@26) (= fixed.java.lang.Object w@@26))))
 :pattern ( (UOrdering2 fixed.sg.edu.nus.comp.tsunami.safe.Safe w@@26) (UOrdering2 w@@26 fixed.java.lang.Object))
)))
(assert (forall ((w@@27 T@U) ) (!  (=> (and (= (type w@@27) javaTypeType) (UOrdering2 fixed.sg.edu.nus.comp.tsunami.safe.Safe w@@27)) (or (= fixed.sg.edu.nus.comp.tsunami.safe.Safe w@@27) (UOrdering2 fixed.java.lang.Object w@@27)))
 :pattern ( (UOrdering2 fixed.sg.edu.nus.comp.tsunami.safe.Safe w@@27))
)))
(assert (forall ((w@@28 T@U) ) (!  (=> (and (= (type w@@28) javaTypeType) (UOrdering2 w@@28 fixed.sg.edu.nus.comp.tsunami.safe.Safe)) (= (oneStep fixed.java.lang.Object w@@28) fixed.sg.edu.nus.comp.tsunami.safe.Safe))
 :pattern ( (UOrdering2 w@@28 fixed.sg.edu.nus.comp.tsunami.safe.Safe))
)))
(assert (= (type fixed.UsernamePasswordLoginModule) javaTypeType))
(assert (not (= fixed.UsernamePasswordLoginModule fixed.java.lang.Object)))
(assert (UOrdering2 fixed.UsernamePasswordLoginModule fixed.java.lang.Object))
(assert (forall ((w@@29 T@U) ) (!  (=> (= (type w@@29) javaTypeType) (=> (and (UOrdering2 fixed.UsernamePasswordLoginModule w@@29) (UOrdering2 w@@29 fixed.java.lang.Object)) (or (= fixed.UsernamePasswordLoginModule w@@29) (= fixed.java.lang.Object w@@29))))
 :pattern ( (UOrdering2 fixed.UsernamePasswordLoginModule w@@29) (UOrdering2 w@@29 fixed.java.lang.Object))
)))
(assert (forall ((w@@30 T@U) ) (!  (=> (and (= (type w@@30) javaTypeType) (UOrdering2 fixed.UsernamePasswordLoginModule w@@30)) (or (= fixed.UsernamePasswordLoginModule w@@30) (UOrdering2 fixed.java.lang.Object w@@30)))
 :pattern ( (UOrdering2 fixed.UsernamePasswordLoginModule w@@30))
)))
(assert (forall ((w@@31 T@U) ) (!  (=> (and (= (type w@@31) javaTypeType) (UOrdering2 w@@31 fixed.UsernamePasswordLoginModule)) (= (oneStep fixed.java.lang.Object w@@31) fixed.UsernamePasswordLoginModule))
 :pattern ( (UOrdering2 w@@31 fixed.UsernamePasswordLoginModule))
)))
(assert (= (type fixed.java.lang.Comparable) javaTypeType))
(assert (forall ((w@@32 T@U) ) (!  (=> (and (= (type w@@32) javaTypeType) (UOrdering2 fixed.java.lang.Comparable w@@32)) (= fixed.java.lang.Comparable w@@32))
 :pattern ( (UOrdering2 fixed.java.lang.Comparable w@@32))
)))
(assert (= (type fixed.java.lang.CharSequence) javaTypeType))
(assert (forall ((w@@33 T@U) ) (!  (=> (and (= (type w@@33) javaTypeType) (UOrdering2 fixed.java.lang.CharSequence w@@33)) (= fixed.java.lang.CharSequence w@@33))
 :pattern ( (UOrdering2 fixed.java.lang.CharSequence w@@33))
)))
(assert (= (type fixed.java.lang.ClassCastException) javaTypeType))
(assert (not (= fixed.java.lang.ClassCastException fixed.java.lang.RuntimeException)))
(assert (UOrdering2 fixed.java.lang.ClassCastException fixed.java.lang.RuntimeException))
(assert (forall ((w@@34 T@U) ) (!  (=> (= (type w@@34) javaTypeType) (=> (and (UOrdering2 fixed.java.lang.ClassCastException w@@34) (UOrdering2 w@@34 fixed.java.lang.RuntimeException)) (or (= fixed.java.lang.ClassCastException w@@34) (= fixed.java.lang.RuntimeException w@@34))))
 :pattern ( (UOrdering2 fixed.java.lang.ClassCastException w@@34) (UOrdering2 w@@34 fixed.java.lang.RuntimeException))
)))
(assert (forall ((w@@35 T@U) ) (!  (=> (and (= (type w@@35) javaTypeType) (UOrdering2 fixed.java.lang.ClassCastException w@@35)) (or (= fixed.java.lang.ClassCastException w@@35) (UOrdering2 fixed.java.lang.RuntimeException w@@35)))
 :pattern ( (UOrdering2 fixed.java.lang.ClassCastException w@@35))
)))
(assert (forall ((w@@36 T@U) ) (!  (=> (and (= (type w@@36) javaTypeType) (UOrdering2 w@@36 fixed.java.lang.ClassCastException)) (= (oneStep fixed.java.lang.RuntimeException w@@36) fixed.java.lang.ClassCastException))
 :pattern ( (UOrdering2 w@@36 fixed.java.lang.ClassCastException))
)))
(assert (forall ((w@@37 T@U) ) (!  (=> (and (= (type w@@37) javaTypeType) (UOrdering2 w@@37 fixed.java.lang.Object)) (or (or (or (or (or (= fixed.java.lang.Object w@@37) (UOrdering2 w@@37 fixed.java.lang.String)) (UOrdering2 w@@37 fixed.java.lang.Throwable)) (UOrdering2 w@@37 fixed.java.lang.Boolean)) (UOrdering2 w@@37 fixed.sg.edu.nus.comp.tsunami.safe.Safe)) (UOrdering2 w@@37 fixed.UsernamePasswordLoginModule)))
 :pattern ( (UOrdering2 w@@37 fixed.java.lang.Object))
)))
(assert (forall ((w@@38 T@U) ) (!  (=> (and (= (type w@@38) javaTypeType) (UOrdering2 w@@38 fixed.java.lang.String)) (= fixed.java.lang.String w@@38))
 :pattern ( (UOrdering2 w@@38 fixed.java.lang.String))
)))
(assert (forall ((w@@39 T@U) ) (!  (=> (and (= (type w@@39) javaTypeType) (UOrdering2 w@@39 fixed.java.io.Serializable)) (or (= fixed.java.io.Serializable w@@39) (UOrdering2 w@@39 fixed.java.lang.Throwable)))
 :pattern ( (UOrdering2 w@@39 fixed.java.io.Serializable))
)))
(assert (forall ((w@@40 T@U) ) (!  (=> (and (= (type w@@40) javaTypeType) (UOrdering2 w@@40 fixed.java.lang.Throwable)) (or (= fixed.java.lang.Throwable w@@40) (UOrdering2 w@@40 fixed.java.lang.Exception)))
 :pattern ( (UOrdering2 w@@40 fixed.java.lang.Throwable))
)))
(assert (forall ((w@@41 T@U) ) (!  (=> (and (= (type w@@41) javaTypeType) (UOrdering2 w@@41 fixed.java.lang.Exception)) (or (= fixed.java.lang.Exception w@@41) (UOrdering2 w@@41 fixed.java.lang.RuntimeException)))
 :pattern ( (UOrdering2 w@@41 fixed.java.lang.Exception))
)))
(assert (forall ((w@@42 T@U) ) (!  (=> (and (= (type w@@42) javaTypeType) (UOrdering2 w@@42 fixed.java.lang.RuntimeException)) (or (or (or (= fixed.java.lang.RuntimeException w@@42) (UOrdering2 w@@42 fixed.java.lang.IndexOutOfBoundsException)) (UOrdering2 w@@42 fixed.java.lang.NullPointerException)) (UOrdering2 w@@42 fixed.java.lang.ClassCastException)))
 :pattern ( (UOrdering2 w@@42 fixed.java.lang.RuntimeException))
)))
(assert (forall ((w@@43 T@U) ) (!  (=> (and (= (type w@@43) javaTypeType) (UOrdering2 w@@43 fixed.java.lang.IndexOutOfBoundsException)) (or (= fixed.java.lang.IndexOutOfBoundsException w@@43) (UOrdering2 w@@43 fixed.java.lang.ArrayIndexOutOfBoundsException)))
 :pattern ( (UOrdering2 w@@43 fixed.java.lang.IndexOutOfBoundsException))
)))
(assert (forall ((w@@44 T@U) ) (!  (=> (and (= (type w@@44) javaTypeType) (UOrdering2 w@@44 fixed.java.lang.ArrayIndexOutOfBoundsException)) (= fixed.java.lang.ArrayIndexOutOfBoundsException w@@44))
 :pattern ( (UOrdering2 w@@44 fixed.java.lang.ArrayIndexOutOfBoundsException))
)))
(assert (forall ((w@@45 T@U) ) (!  (=> (and (= (type w@@45) javaTypeType) (UOrdering2 w@@45 fixed.java.lang.NullPointerException)) (= fixed.java.lang.NullPointerException w@@45))
 :pattern ( (UOrdering2 w@@45 fixed.java.lang.NullPointerException))
)))
(assert (forall ((w@@46 T@U) ) (!  (=> (and (= (type w@@46) javaTypeType) (UOrdering2 w@@46 fixed.java.lang.Boolean)) (= fixed.java.lang.Boolean w@@46))
 :pattern ( (UOrdering2 w@@46 fixed.java.lang.Boolean))
)))
(assert (forall ((w@@47 T@U) ) (!  (=> (and (= (type w@@47) javaTypeType) (UOrdering2 w@@47 fixed.sg.edu.nus.comp.tsunami.safe.Safe)) (= fixed.sg.edu.nus.comp.tsunami.safe.Safe w@@47))
 :pattern ( (UOrdering2 w@@47 fixed.sg.edu.nus.comp.tsunami.safe.Safe))
)))
(assert (forall ((w@@48 T@U) ) (!  (=> (and (= (type w@@48) javaTypeType) (UOrdering2 w@@48 fixed.UsernamePasswordLoginModule)) (= fixed.UsernamePasswordLoginModule w@@48))
 :pattern ( (UOrdering2 w@@48 fixed.UsernamePasswordLoginModule))
)))
(assert (forall ((w@@49 T@U) ) (!  (=> (and (= (type w@@49) javaTypeType) (UOrdering2 w@@49 fixed.java.lang.Comparable)) (= fixed.java.lang.Comparable w@@49))
 :pattern ( (UOrdering2 w@@49 fixed.java.lang.Comparable))
)))
(assert (forall ((w@@50 T@U) ) (!  (=> (and (= (type w@@50) javaTypeType) (UOrdering2 w@@50 fixed.java.lang.CharSequence)) (= fixed.java.lang.CharSequence w@@50))
 :pattern ( (UOrdering2 w@@50 fixed.java.lang.CharSequence))
)))
(assert (forall ((w@@51 T@U) ) (!  (=> (and (= (type w@@51) javaTypeType) (UOrdering2 w@@51 fixed.java.lang.ClassCastException)) (= fixed.java.lang.ClassCastException w@@51))
 :pattern ( (UOrdering2 w@@51 fixed.java.lang.ClassCastException))
)))
(assert  (and (and (and (and (and (forall ((arg0@@6 T@T) ) (! (= (Ctor (FieldType arg0@@6)) 4)
 :qid |ctor:FieldType|
)) (forall ((arg0@@7 T@T) ) (! (= (FieldTypeInv0 (FieldType arg0@@7)) arg0@@7)
 :qid |typeInv:FieldTypeInv0|
 :pattern ( (FieldType arg0@@7))
))) (= (type fixed.$type) (FieldType javaTypeType))) (= (type fixed.$alloc) (FieldType boolType))) (= (Ctor refType) 5)) (= (type fixed.$null) refType)))
(assert (distinct fixed.$type fixed.$alloc fixed.$null fixed.java.lang.Object fixed.java.lang.String fixed.java.io.Serializable fixed.java.lang.Throwable fixed.java.lang.Exception fixed.java.lang.RuntimeException fixed.java.lang.IndexOutOfBoundsException fixed.java.lang.ArrayIndexOutOfBoundsException fixed.java.lang.NullPointerException fixed.java.lang.Boolean fixed.sg.edu.nus.comp.tsunami.safe.Safe fixed.UsernamePasswordLoginModule fixed.java.lang.Comparable fixed.java.lang.CharSequence fixed.java.lang.ClassCastException)
)
(assert (forall ((x@@5 Int) ) (!  (and (=> (fixed.$intToBool x@@5) (ite (= x@@5 0) false true)) (=> (ite (= x@@5 0) false true) (fixed.$intToBool x@@5)))
 :qid |RSPROCUs.105:15|
 :skolemid |2223|
 :pattern ( (fixed.$intToBool x@@5))
)))
(assert (forall ((x@@6 T@U) ) (!  (=> (= (type x@@6) refType) (and (=> (fixed.$refToBool x@@6) (ite (= x@@6 fixed.$null) false true)) (=> (ite (= x@@6 fixed.$null) false true) (fixed.$refToBool x@@6))))
 :qid |RSPROCUs.109:15|
 :skolemid |2224|
 :pattern ( (fixed.$refToBool x@@6))
)))
(assert (forall ((x@@7 Bool) ) (! (= (fixed.$boolToInt x@@7) (ite  (and (=> x@@7 true) (=> true x@@7)) 1 0))
 :qid |RSPROCUs.113:15|
 :skolemid |2225|
 :pattern ( (fixed.$boolToInt x@@7))
)))
(assert (forall ((x@@8 Real) (y@@1 Real) ) (! (= (fixed.$cmpReal x@@8 y@@1) (ite (> x@@8 y@@1) 1 (ite (< x@@8 y@@1) (- 0 1) 0)))
 :qid |RSPROCUs.117:15|
 :skolemid |2226|
 :pattern ( (fixed.$cmpReal x@@8 y@@1))
)))
(assert (forall ((x@@9 Int) (y@@2 Int) ) (! (= (fixed.$cmpInt x@@9 y@@2) (ite (> x@@9 y@@2) 1 (ite (< x@@9 y@@2) (- 0 1) 0)))
 :qid |RSPROCUs.121:15|
 :skolemid |2227|
 :pattern ( (fixed.$cmpInt x@@9 y@@2))
)))
(assert (forall ((arg0@@8 Int) ) (! (= (type (fixed.$intToRef arg0@@8)) refType)
 :qid |funType:fixed.$intToRef|
 :pattern ( (fixed.$intToRef arg0@@8))
)))
(assert (forall ((index Int) ) (! (not (= (fixed.$intToRef index) fixed.$null))
 :qid |RSPROCUs.125:15|
 :skolemid |2228|
)))
(assert (forall ((i1 Int) (i2 Int) ) (!  (and (=> (= i1 i2) (= (fixed.$intToRef i1) (fixed.$intToRef i2))) (=> (= (fixed.$intToRef i1) (fixed.$intToRef i2)) (= i1 i2)))
 :qid |RSPROCUs.127:15|
 :skolemid |2229|
)))
(assert (forall ((x@@10 Int) ) (!  (and (=> (fixed.$intToBool x@@10) (ite (= x@@10 0) false true)) (=> (ite (= x@@10 0) false true) (fixed.$intToBool x@@10)))
 :qid |RSPROCUs.13079:15|
 :skolemid |2692|
 :pattern ( (fixed.$intToBool x@@10))
)))
(assert (forall ((x@@11 T@U) ) (!  (=> (= (type x@@11) refType) (and (=> (fixed.$refToBool x@@11) (ite (= x@@11 fixed.$null) false true)) (=> (ite (= x@@11 fixed.$null) false true) (fixed.$refToBool x@@11))))
 :qid |RSPROCUs.13083:15|
 :skolemid |2693|
 :pattern ( (fixed.$refToBool x@@11))
)))
(assert (forall ((x@@12 Bool) ) (! (= (fixed.$boolToInt x@@12) (ite  (and (=> x@@12 true) (=> true x@@12)) 1 0))
 :qid |RSPROCUs.13087:15|
 :skolemid |2694|
 :pattern ( (fixed.$boolToInt x@@12))
)))
(assert (forall ((x@@13 Real) (y@@3 Real) ) (! (= (fixed.$cmpReal x@@13 y@@3) (ite (> x@@13 y@@3) 1 (ite (< x@@13 y@@3) (- 0 1) 0)))
 :qid |RSPROCUs.13091:15|
 :skolemid |2695|
 :pattern ( (fixed.$cmpReal x@@13 y@@3))
)))
(assert (forall ((x@@14 Int) (y@@4 Int) ) (! (= (fixed.$cmpInt x@@14 y@@4) (ite (> x@@14 y@@4) 1 (ite (< x@@14 y@@4) (- 0 1) 0)))
 :qid |RSPROCUs.13095:15|
 :skolemid |2696|
 :pattern ( (fixed.$cmpInt x@@14 y@@4))
)))
(assert (forall ((index@@0 Int) ) (! (not (= (fixed.$intToRef index@@0) fixed.$null))
 :qid |RSPROCUs.13099:15|
 :skolemid |2697|
)))
(assert (forall ((i1@@0 Int) (i2@@0 Int) ) (!  (and (=> (= i1@@0 i2@@0) (= (fixed.$intToRef i1@@0) (fixed.$intToRef i2@@0))) (=> (= (fixed.$intToRef i1@@0) (fixed.$intToRef i2@@0)) (= i1@@0 i2@@0)))
 :qid |RSPROCUs.13101:15|
 :skolemid |2698|
)))
(assert  (and (and (and (and (and (and (and (and (and (and (and (and (and (and (and (and (forall ((arg0@@9 T@T) ) (! (= (Ctor (MapType0Type arg0@@9)) 6)
 :qid |ctor:MapType0Type|
)) (forall ((arg0@@10 T@T) ) (! (= (MapType0TypeInv0 (MapType0Type arg0@@10)) arg0@@10)
 :qid |typeInv:MapType0TypeInv0|
 :pattern ( (MapType0Type arg0@@10))
))) (forall ((arg0@@11 T@U) (arg1@@0 T@U) (arg2 T@U) ) (! (let (($GenericType__0 (FieldTypeInv0 (type arg2))))
(= (type (MapType0Select arg0@@11 arg1@@0 arg2)) $GenericType__0))
 :qid |funType:MapType0Select|
 :pattern ( (MapType0Select arg0@@11 arg1@@0 arg2))
))) (forall ((arg0@@12 T@U) (arg1@@1 T@U) (arg2@@0 T@U) (arg3 T@U) ) (! (let ((aVar0 (type arg1@@1)))
(= (type (MapType0Store arg0@@12 arg1@@1 arg2@@0 arg3)) (MapType0Type aVar0)))
 :qid |funType:MapType0Store|
 :pattern ( (MapType0Store arg0@@12 arg1@@1 arg2@@0 arg3))
))) (forall ((m T@U) (x0 T@U) (x1 T@U) (val T@U) ) (! (let (($GenericType__0@@0 (FieldTypeInv0 (type x1))))
 (=> (= (type val) $GenericType__0@@0) (= (MapType0Select (MapType0Store m x0 x1 val) x0 x1) val)))
 :qid |mapAx0:MapType0Select|
 :weight 0
))) (and (and (forall ((val@@0 T@U) (m@@0 T@U) (x0@@0 T@U) (x1@@0 T@U) (y0 T@U) (y1 T@U) ) (!  (or (= x0@@0 y0) (= (MapType0Select (MapType0Store m@@0 x0@@0 x1@@0 val@@0) y0 y1) (MapType0Select m@@0 y0 y1)))
 :qid |mapAx1:MapType0Select:0|
 :weight 0
)) (forall ((val@@1 T@U) (m@@1 T@U) (x0@@1 T@U) (x1@@1 T@U) (y0@@0 T@U) (y1@@0 T@U) ) (!  (or (= x1@@1 y1@@0) (= (MapType0Select (MapType0Store m@@1 x0@@1 x1@@1 val@@1) y0@@0 y1@@0) (MapType0Select m@@1 y0@@0 y1@@0)))
 :qid |mapAx1:MapType0Select:1|
 :weight 0
))) (forall ((val@@2 T@U) (m@@2 T@U) (x0@@2 T@U) (x1@@2 T@U) (y0@@1 T@U) (y1@@1 T@U) ) (!  (or true (= (MapType0Select (MapType0Store m@@2 x0@@2 x1@@2 val@@2) y0@@1 y1@@1) (MapType0Select m@@2 y0@@1 y1@@1)))
 :qid |mapAx2:MapType0Select|
 :weight 0
)))) (= (type fixed.$heap) (MapType0Type refType))) (forall ((arg0@@13 T@T) (arg1@@2 T@T) ) (! (= (Ctor (MapType1Type arg0@@13 arg1@@2)) 7)
 :qid |ctor:MapType1Type|
))) (forall ((arg0@@14 T@T) (arg1@@3 T@T) ) (! (= (MapType1TypeInv0 (MapType1Type arg0@@14 arg1@@3)) arg0@@14)
 :qid |typeInv:MapType1TypeInv0|
 :pattern ( (MapType1Type arg0@@14 arg1@@3))
))) (forall ((arg0@@15 T@T) (arg1@@4 T@T) ) (! (= (MapType1TypeInv1 (MapType1Type arg0@@15 arg1@@4)) arg1@@4)
 :qid |typeInv:MapType1TypeInv1|
 :pattern ( (MapType1Type arg0@@15 arg1@@4))
))) (forall ((arg0@@16 T@U) (arg1@@5 T@U) ) (! (let ((aVar1 (MapType1TypeInv1 (type arg0@@16))))
(= (type (MapType1Select arg0@@16 arg1@@5)) aVar1))
 :qid |funType:MapType1Select|
 :pattern ( (MapType1Select arg0@@16 arg1@@5))
))) (forall ((arg0@@17 T@U) (arg1@@6 T@U) (arg2@@1 T@U) ) (! (let ((aVar1@@0 (type arg2@@1)))
(let ((aVar0@@0 (type arg1@@6)))
(= (type (MapType1Store arg0@@17 arg1@@6 arg2@@1)) (MapType1Type aVar0@@0 aVar1@@0))))
 :qid |funType:MapType1Store|
 :pattern ( (MapType1Store arg0@@17 arg1@@6 arg2@@1))
))) (forall ((m@@3 T@U) (x0@@3 T@U) (val@@3 T@U) ) (! (let ((aVar1@@1 (MapType1TypeInv1 (type m@@3))))
 (=> (= (type val@@3) aVar1@@1) (= (MapType1Select (MapType1Store m@@3 x0@@3 val@@3) x0@@3) val@@3)))
 :qid |mapAx0:MapType1Select|
 :weight 0
))) (and (forall ((val@@4 T@U) (m@@4 T@U) (x0@@4 T@U) (y0@@2 T@U) ) (!  (or (= x0@@4 y0@@2) (= (MapType1Select (MapType1Store m@@4 x0@@4 val@@4) y0@@2) (MapType1Select m@@4 y0@@2)))
 :qid |mapAx1:MapType1Select:0|
 :weight 0
)) (forall ((val@@5 T@U) (m@@5 T@U) (x0@@5 T@U) (y0@@3 T@U) ) (!  (or true (= (MapType1Select (MapType1Store m@@5 x0@@5 val@@5) y0@@3) (MapType1Select m@@5 y0@@3)))
 :qid |mapAx2:MapType1Select|
 :weight 0
)))) (= (type fixed.$arrSizeHeap) (MapType1Type refType intType))) (= (type fixed.$stringSizeHeap) (MapType1Type refType intType))) (= (type $this) refType)))
(push 1)
(set-info :boogie-vc-id PROC_.UsernamePasswordLoginModule$$la$init$ra$$_EQ_unsafe__xx__fixed)
(assert (not
(let ((AA_INSTR_EQ_BODY$2_correct  (=> (! (and %lbl%+472139 true) :lblpos +472139) (=> (and (=> AA_TEMP130@1 (or AA_TEMP130@0 (= fixed.$null fixed.$null))) (=> (or AA_TEMP130@0 (= fixed.$null fixed.$null)) AA_TEMP130@1)) (! (or %lbl%@479512 AA_TEMP130@1) :lblneg @479512)))))
(let ((inline$fixed.UsernamePasswordLoginModule$$la$init$ra$$$0$Return_correct  (=> (! (and %lbl%+472138 true) :lblpos +472138) AA_INSTR_EQ_BODY$2_correct)))
(let ((inline$fixed.UsernamePasswordLoginModule$$la$init$ra$$$0$block60_correct  (=> (! (and %lbl%+472137 true) :lblpos +472137) inline$fixed.UsernamePasswordLoginModule$$la$init$ra$$$0$Return_correct)))
(let ((inline$fixed.UsernamePasswordLoginModule$$la$init$ra$$$0$anon0$1_correct  (=> (! (and %lbl%+472136 true) :lblpos +472136) inline$fixed.UsernamePasswordLoginModule$$la$init$ra$$$0$block60_correct)))
(let ((inline$fixed.UsernamePasswordLoginModule$$la$init$ra$$$0$inline$java.lang.Object$$la$init$ra$$$0$Return_correct  (=> (! (and %lbl%+472135 true) :lblpos +472135) inline$fixed.UsernamePasswordLoginModule$$la$init$ra$$$0$anon0$1_correct)))
(let ((inline$fixed.UsernamePasswordLoginModule$$la$init$ra$$$0$inline$java.lang.Object$$la$init$ra$$$0$anon0_correct  (=> (! (and %lbl%+472134 true) :lblpos +472134) inline$fixed.UsernamePasswordLoginModule$$la$init$ra$$$0$inline$java.lang.Object$$la$init$ra$$$0$Return_correct)))
(let ((inline$fixed.UsernamePasswordLoginModule$$la$init$ra$$$0$inline$java.lang.Object$$la$init$ra$$$0$Entry_correct  (=> (! (and %lbl%+472133 true) :lblpos +472133) inline$fixed.UsernamePasswordLoginModule$$la$init$ra$$$0$inline$java.lang.Object$$la$init$ra$$$0$anon0_correct)))
(let ((inline$fixed.UsernamePasswordLoginModule$$la$init$ra$$$0$anon0_correct  (=> (! (and %lbl%+472132 true) :lblpos +472132) (=> (forall ((T T@U) ) (!  (=> (= (type T) javaTypeType) (UOrdering2 (MapType0Select fixed.$heap fixed.$null fixed.$type) T))
 :qid |RSPROCUs.17176:20|
 :skolemid |2747|
 :no-pattern (type T)
 :no-pattern (U_2_int T)
 :no-pattern (U_2_bool T)
)) (=> (and (and (forall ((_r T@U) ) (!  (=> (= (type _r) refType) (>= (U_2_int (MapType1Select fixed.$arrSizeHeap _r)) 0))
 :qid |RSPROCUs.17177:20|
 :skolemid |2748|
 :no-pattern (type _r)
 :no-pattern (U_2_int _r)
 :no-pattern (U_2_bool _r)
)) (forall ((_r@@0 T@U) ) (!  (=> (= (type _r@@0) refType) (>= (U_2_int (MapType1Select fixed.$stringSizeHeap _r@@0)) 0))
 :qid |RSPROCUs.17178:20|
 :skolemid |2749|
 :no-pattern (type _r@@0)
 :no-pattern (U_2_int _r@@0)
 :no-pattern (U_2_bool _r@@0)
))) (and (UOrdering2 (MapType0Select fixed.$heap $this fixed.$type) fixed.UsernamePasswordLoginModule) (not (= $this fixed.$null)))) inline$fixed.UsernamePasswordLoginModule$$la$init$ra$$$0$inline$java.lang.Object$$la$init$ra$$$0$Entry_correct)))))
(let ((inline$fixed.UsernamePasswordLoginModule$$la$init$ra$$$0$Entry_correct  (=> (! (and %lbl%+472131 true) :lblpos +472131) inline$fixed.UsernamePasswordLoginModule$$la$init$ra$$$0$anon0_correct)))
(let ((AA_INSTR_EQ_BODY$1_correct  (=> (! (and %lbl%+472130 true) :lblpos +472130) inline$fixed.UsernamePasswordLoginModule$$la$init$ra$$$0$Entry_correct)))
(let ((inline$unsafe.UsernamePasswordLoginModule$$la$init$ra$$$0$Return_correct  (=> (! (and %lbl%+472129 true) :lblpos +472129) AA_INSTR_EQ_BODY$1_correct)))
(let ((inline$unsafe.UsernamePasswordLoginModule$$la$init$ra$$$0$block9_correct  (=> (! (and %lbl%+472128 true) :lblpos +472128) inline$unsafe.UsernamePasswordLoginModule$$la$init$ra$$$0$Return_correct)))
(let ((inline$unsafe.UsernamePasswordLoginModule$$la$init$ra$$$0$anon0$1_correct  (=> (! (and %lbl%+472127 true) :lblpos +472127) inline$unsafe.UsernamePasswordLoginModule$$la$init$ra$$$0$block9_correct)))
(let ((inline$unsafe.UsernamePasswordLoginModule$$la$init$ra$$$0$inline$java.lang.Object$$la$init$ra$$$0$Return_correct  (=> (! (and %lbl%+472126 true) :lblpos +472126) inline$unsafe.UsernamePasswordLoginModule$$la$init$ra$$$0$anon0$1_correct)))
(let ((inline$unsafe.UsernamePasswordLoginModule$$la$init$ra$$$0$inline$java.lang.Object$$la$init$ra$$$0$anon0_correct  (=> (! (and %lbl%+472125 true) :lblpos +472125) inline$unsafe.UsernamePasswordLoginModule$$la$init$ra$$$0$inline$java.lang.Object$$la$init$ra$$$0$Return_correct)))
(let ((inline$unsafe.UsernamePasswordLoginModule$$la$init$ra$$$0$inline$java.lang.Object$$la$init$ra$$$0$Entry_correct  (=> (! (and %lbl%+472124 true) :lblpos +472124) inline$unsafe.UsernamePasswordLoginModule$$la$init$ra$$$0$inline$java.lang.Object$$la$init$ra$$$0$anon0_correct)))
(let ((inline$unsafe.UsernamePasswordLoginModule$$la$init$ra$$$0$anon0_correct  (=> (! (and %lbl%+472123 true) :lblpos +472123) (=> (forall ((T@@0 T@U) ) (!  (=> (= (type T@@0) javaTypeType) (UOrdering2 (MapType0Select fixed.$heap fixed.$null fixed.$type) T@@0))
 :qid |RSPROCUs.17129:20|
 :skolemid |2744|
 :no-pattern (type T@@0)
 :no-pattern (U_2_int T@@0)
 :no-pattern (U_2_bool T@@0)
)) (=> (and (and (forall ((_r@@1 T@U) ) (!  (=> (= (type _r@@1) refType) (>= (U_2_int (MapType1Select fixed.$arrSizeHeap _r@@1)) 0))
 :qid |RSPROCUs.17130:20|
 :skolemid |2745|
 :no-pattern (type _r@@1)
 :no-pattern (U_2_int _r@@1)
 :no-pattern (U_2_bool _r@@1)
)) (forall ((_r@@2 T@U) ) (!  (=> (= (type _r@@2) refType) (>= (U_2_int (MapType1Select fixed.$stringSizeHeap _r@@2)) 0))
 :qid |RSPROCUs.17131:20|
 :skolemid |2746|
 :no-pattern (type _r@@2)
 :no-pattern (U_2_int _r@@2)
 :no-pattern (U_2_bool _r@@2)
))) (and (UOrdering2 (MapType0Select fixed.$heap $this fixed.$type) fixed.UsernamePasswordLoginModule) (not (= $this fixed.$null)))) inline$unsafe.UsernamePasswordLoginModule$$la$init$ra$$$0$inline$java.lang.Object$$la$init$ra$$$0$Entry_correct)))))
(let ((inline$unsafe.UsernamePasswordLoginModule$$la$init$ra$$$0$Entry_correct  (=> (! (and %lbl%+472122 true) :lblpos +472122) inline$unsafe.UsernamePasswordLoginModule$$la$init$ra$$$0$anon0_correct)))
(let ((AA_INSTR_EQ_BODY_correct  (=> (! (and %lbl%+472121 true) :lblpos +472121) inline$unsafe.UsernamePasswordLoginModule$$la$init$ra$$$0$Entry_correct)))
(let ((q@0_correct  (=> (! (and %lbl%+479253 true) :lblpos +479253) AA_INSTR_EQ_BODY_correct)))
(let ((PreconditionGeneratedEntry_correct  (=> (! (and %lbl%+479257 true) :lblpos +479257) q@0_correct)))
PreconditionGeneratedEntry_correct)))))))))))))))))))))
))
(check-sat)
(pop 1)
; Valid
